c Random generated cnf formula, satisfiable: false
p cnf 10 50
-10 -1 8 0
2 -10 6 0
5 -10 1 0
6 -7 4 0
4 8 -7 0
4 3 5 0
-7 2 -4 0
4 -9 -1 0
-9 -5 -10 0
8 -2 1 0
4 -9 2 0
-5 -7 1 0
-6 -4 3 0
10 6 5 0
9 -1 10 0
1 -2 9 0
-8 -4 3 0
1 -6 7 0
-6 -8 10 0
-4 -2 9 0
-8 10 -3 0
-8 9 3 0
1 -2 9 0
8 -1 -9 0
5 7 -9 0
-10 1 6 0
5 -1 -2 0
5 -9 3 0
6 10 4 0
10 -9 -5 0
-9 8 3 0
4 5 7 0
6 8 -5 0
-6 -8 9 0
4 -5 3 0
-1 -3 7 0
6 -4 3 0
-3 7 -2 0
-9 2 -5 0
1 -5 -8 0
-4 2 3 0
10 5 -9 0
-1 -6 9 0
-1 9 3 0
10 8 7 0
-10 -4 9 0
2 4 -1 0
6 -2 -1 0
6 -2 4 0
4 9 -3 0
